5870
9206
1680
6286
3498
668
4415
832
7665
10131
3242
1499
4095
1618
1991
4048
1197
8133
5489
7864
10006
7402
8123
9545
2902
2881
4243
1141
5730
8345
5143
9780
8140
4851
7037
1339
6931
6528
9054
6504
4010
7419
3343
7217
8991
5152
928
1277
920
5581
